NAME = SAfile180,
TOURSIZE = 180,
LENGTH = 420780,
1,168,24,74,82,87,14,159,13,148,92,102,116,99,111,90,167,60,178,77,61,78,171,16,23,154,57,140,46,40,108,146,30,138,43,93,79,162,58,65,5,125,37,71,36,80,165,48,53,63,134,83,98,142,119,172,157,81,8,33,120,64,88,106,50,34,96,141,129,103,17,44,12,21,123,124,2,156,177,9,73,112,11,128,6,47,51,133,144,155,147,4,104,145,170,70,25,115,126,158,152,109,29,113,153,89,67,131,84,169,55,180,68,136,110,75,127,32,95,39,86,62,66,72,26,101,28,18,179,137,94,85,54,114,27,161,56,149,20,151,139,100,150,19,22,41,49,107,97,10,122,38,45,175,135,105,173,174,121,3,130,91,166,69,15,7,118,143,117,132,163,160,59,176,31,164,52,35,76,42